50 49
2 36 1
23 34 1
28 37 1
14 13 1
9 10 1
23 38 1
32 50 1
27 29 1
18 1 1
23 30 1
45 2 1
19 40 1
41 35 1
24 26 1
14 4 1
38 18 1
28 32 1
31 46 1
25 17 1
45 15 1
32 6 1
31 16 1
38 31 1
38 9 1
14 23 1
15 12 1
16 5 1
14 44 1
39 11 1
20 7 1
15 49 1
23 24 1
4 41 1
4 27 1
32 21 1
39 8 1
4 33 1
46 43 1
30 22 1
4 39 1
9 48 1
16 3 1
13 42 1
23 28 1
14 45 1
27 20 1
38 19 1
14 25 1
33 47 1

